NAME          BUDGET
ROWS
 G  TOTN
 G  N
 G  TOTP
 G  P
 G  TOTK
 G  K
 G  TOTS
 G  S
 G  TOTMG
 G  MG
 G  B
 G  ZN
 G  DEN
 E  WT
 N  COST
 N  PRICE
COLUMNS
*234567890123456789012345678901234567890123456789012345678901
    I184600   TOTN          0.180000   N             0.180000   
    I184600   TOTP          0.460000   P             0.460000   
    I184600   DEN           0.016065   WT            1.000000   
    I184600   COST        200.000000   PRICE       228.750000   
    I184600   SCALE      2000.000000   
    I115200   TOTN          0.110000   N             0.110000   
    I115200   TOTP          0.520000   P             0.520000   
    I115200   DEN           0.015447   WT            1.000000   
    I115200   COST        189.000000   PRICE       236.250000   
    I115200   SCALE      2000.000000   
    I004600   TOTP          0.460000   P             0.460000   
    I004600   DEN           0.014365   WT            1.000000   
    I004600   COST        129.000000   PRICE       161.250000   
    I004600   SCALE      2000.000000   
    I460000   TOTN          0.460000   N             0.460000   
    I460000   DEN           0.020918   WT            1.000000   
    I460000   COST        200.000000   PRICE       200.000000   
    I460000   SCALE      2000.000000   
    I210000   TOTN          0.210000   N             0.210000   
    I210000   TOTS          0.240000   S             0.240000   
    I210000   DEN           0.020491   WT            1.000000   
    I210000   COST        110.000000   PRICE       137.500000   
    I210000   SCALE      2000.000000   
    I000060   TOTK          0.600000   K             0.600000   
    I000060   DEN           0.015471   WT            1.000000   
    I000060   COST        100.000000   PRICE       112.500000   
    I000060   SCALE      2000.000000   
    I000022   TOTK          0.220000   K             0.220000   
    I000022   TOTS          0.220000   S             0.220000   
    I000022   TOTMG         0.110000   MG            0.110000   
    I000022   DEN           0.010288   WT            1.000000   
    I000022   COST        110.000000   PRICE       137.500000   
    I000022   SCALE      2000.000000   
    I20S36Z   TOTS          0.200000   S             0.200000   
    I20S36Z   ZN            0.360000   DEN           0.013057   
    I20S36Z   WT            1.000000   COST        400.000000   
    I20S36Z   PRICE       500.000000   SCALE      2000.000000   
    I14B000   B             0.143000   DEN           0.021971   
    I14B000   WT            1.000000   COST        420.000000   
    I14B000   PRICE       525.000000   SCALE      2000.000000   
    I000000   DEN           0.011156   WT            1.000000   
    I000000   COST         28.000000   PRICE        35.000000   
    I000000   SCALE      2000.000000   
              COST          0.000000   PRICE         0.000000   
              SCALE         1.000000   
    I820000   TOTN          0.822000   COST          0.125000   
    I820000   PRICE         0.156200   SCALE         1.000000   
    I820000   TOTN          0.822000   COST          0.125000   
    I820000   PRICE         0.156200   SCALE         1.000000   
              COST          0.000000   PRICE         0.000000   
              SCALE         1.000000   
    I103400   TOTN          0.100000   TOTP          0.340000   
    I103400   COST          0.095000   PRICE         0.118700   
    I103400   SCALE         1.000000   
    I082005   TOTN          0.080000   TOTP          0.200000   
    I082005   TOTK          0.050000   TOTS          0.050000   
    I082005   ZN            0.005000   COST          0.087500   
    I082005   PRICE         0.109400   SCALE         1.000000   
    I072107   TOTN          0.070000   TOTP          0.210000   
    I072107   TOTK          0.070000   COST          0.090000   
    I072107   PRICE         0.112500   SCALE         1.000000   
    I300000   TOTN          0.300000   COST          0.067700   
    I300000   PRICE         0.084600   SCALE         1.000000   
              DEN           0.016048   COST          0.000000   
              PRICE         0.000000   SCALE         1.000000   
    I280000   TOTN          0.280000   COST          0.062500   
    I280000   PRICE         0.078100   SCALE         1.000000   
    I320000   TOTN          0.320000   COST          0.071500   
    I320000   PRICE         0.089400   SCALE         1.000000   
    I28N5S    TOTN          0.280000   TOTS          0.050000   
    I28N5S    COST          0.071500   PRICE         0.089400   
    I28N5S    SCALE         1.000000   
              DEN           0.016048   COST          0.000000   
              PRICE         0.000000   SCALE         1.000000   
    I280000   TOTN          0.280000   COST          0.062500   
    I280000   PRICE         0.078100   SCALE         1.000000   
    I320000   TOTN          0.320000   COST          0.071500   
    I320000   PRICE         0.089400   SCALE         1.000000   
    I28N5S    TOTN          0.280000   TOTS          0.050000   
    I28N5S    COST          0.071500   PRICE         0.089400   
    I28N5S    SCALE         1.000000   
              DEN           0.016048   COST          0.000000   
              PRICE         0.000000   SCALE         1.000000   
    I280000   TOTN          0.280000   COST          0.062500   
    I280000   PRICE         0.078100   SCALE         1.000000   
    I320000   TOTN          0.320000   COST          0.071500   
    I320000   PRICE         0.089400   SCALE         1.000000   
    I28N5S    TOTN          0.280000   TOTS          0.050000   
    I28N5S    COST          0.071500   PRICE         0.089400   
    I28N5S    SCALE         1.000000   
              DEN           0.017882   COST          0.000000   
              PRICE         0.000000   SCALE         1.000000   
    ISEEDC1   COST          0.025300   PRICE         0.025300   
    ISEEDC1   SCALE         1.000000   
    ISEEDC2   COST          0.030300   PRICE         0.030300   
    ISEEDC2   SCALE         1.000000   
              COST          0.000000   PRICE         0.000000   
              SCALE         1.000000   
    AATREX4L  DEN           0.014317   WT            1.000000   
    AATREX4L  COST          2.500000   PRICE         2.500000   
    AATREX4L  SCALE         2.334400   
    LASSO     DEN           0.013386   WT            1.000000   
    LASSO     COST          7.500000   PRICE         7.500000   
    LASSO     SCALE         2.496700   
    ROUNDUMA  DEN           0.013385   WT            1.000000   
    ROUNDUMA  COST          0.164100   PRICE         0.164100   
    ROUNDUMA  SCALE         0.078000   
              COST          0.000000   PRICE         0.000000   
              SCALE         1.000000   
    MANURE    TOTN          0.023000   TOTP          0.033000   
    MANURE    TOTK          0.030000   COST          0.000000   
    MANURE    PRICE         0.000000   SCALE      2000.000000   
    DAIRYY1   TOTN          0.002000   TOTP          0.001000   
    DAIRYY1   TOTK          0.004200   COST          0.000000   
    DAIRYY1   PRICE         0.000000   SCALE         1.000000   
    DAIRYY2   TOTN          0.001000   COST          0.000000   
    DAIRYY2   PRICE         0.000000   SCALE         1.000000   
    DAIRYY3   TOTN          0.000500   COST          0.000000   
    DAIRYY3   PRICE         0.000000   SCALE         1.000000   
    IBEEFY1   TOTN          0.002200   TOTP          0.001700   
    IBEEFY1   TOTK          0.004200   COST          0.000000   
    IBEEFY1   PRICE         0.000000   SCALE         1.000000   
    IBEEFY2   TOTN          0.001100   COST          0.000000   
    IBEEFY2   PRICE         0.000000   SCALE         1.000000   
    IBEEFY3   TOTN          0.000500   COST          0.000000   
    IBEEFY3   PRICE         0.000000   SCALE         1.000000   
    ISWINEY1  TOTN          0.002500   TOTP          0.002300   
    ISWINEY1  TOTK          0.003400   COST          0.000000   
    ISWINEY1  PRICE         0.000000   SCALE         1.000000   
    ISWINEY2  TOTN          0.001300   COST          0.000000   
    ISWINEY2  PRICE         0.000000   SCALE         1.000000   
    ISWINEY3  TOTN          0.000600   COST          0.000000   
    ISWINEY3  PRICE         0.000000   SCALE         1.000000   
    IDAIRYL1  TOTN          0.000300   TOTP          0.000400   
    IDAIRYL1  TOTK          0.000400   COST          0.000000   
    IDAIRYL1  PRICE         0.000000   SCALE         9.986700   
    IDAIRYL2  TOTN          0.000100   COST          0.000000   
    IDAIRYL2  PRICE         0.000000   SCALE         9.986700   
    IDAIRYL3  TOTN          0.000100   COST          0.000000   
    IDAIRYL3  PRICE         0.000000   SCALE         9.986700   
    IBEEFL1   TOTN          0.000200   TOTP          0.000900   
    IBEEFL1   TOTK          0.000400   COST          0.000000   
    IBEEFL1   PRICE         0.000000   SCALE         9.986700   
    IBEEFL2   TOTN          0.000100   COST          0.000000   
    IBEEFL2   PRICE         0.000000   SCALE         9.986700   
    IBEEFL3   COST          0.000000   PRICE         0.000000   
    IBEEFL3   SCALE         9.986700   
    ISWINEL1  TOTN          0.000300   TOTP          0.000200   
    ISWINEL1  TOTK          0.000300   COST          0.000000   
    ISWINEL1  PRICE         0.000000   SCALE         9.986700   
    ISWINEL2  TOTN          0.000100   COST          0.000000   
    ISWINEL2  PRICE         0.000000   SCALE         9.986700   
    ISWINEL3  TOTN          0.000100   COST          0.000000   
    ISWINEL3  PRICE         0.000000   SCALE         9.986700   
    DAIRY     TOTN          0.006000   TOTP          0.002000   
    DAIRY     TOTK          0.005000   COST          0.000000   
    DAIRY     PRICE         0.000000   SCALE      2000.000000   
    DUCK      TOTN          0.011000   TOTP          0.015000   
    DUCK      TOTK          0.005000   COST          0.000000   
    DUCK      PRICE         0.000000   SCALE      2000.000000   
    GOOSE     TOTN          0.011000   TOTP          0.006000   
    GOOSE     TOTK          0.005000   COST          0.000000   
    GOOSE     PRICE         0.000000   SCALE      2000.000000   
    HEN       TOTN          0.011000   TOTP          0.009000   
    HEN       TOTK          0.005000   COST          0.000000   
    HEN       PRICE         0.000000   SCALE      2000.000000   
    HOG       TOTN          0.006000   TOTP          0.003000   
    HOG       TOTK          0.005000   COST          0.000000   
    HOG       PRICE         0.000000   SCALE      2000.000000   
    HORSE     TOTN          0.007000   TOTP          0.003000   
    HORSE     TOTK          0.005000   COST          0.000000   
    HORSE     PRICE         0.000000   SCALE      2000.000000   
    SHEEP     TOTN          0.010000   TOTP          0.008000   
    SHEEP     TOTK          0.004000   COST          0.000000   
    SHEEP     PRICE         0.000000   SCALE      2000.000000   
    STEER     TOTN          0.006000   TOTP          0.004000   
    STEER     TOTK          0.006000   COST          0.000000   
    STEER     PRICE         0.000000   SCALE      2000.000000   
    TURKEY    TOTN          0.013000   TOTP          0.007000   
    TURKEY    TOTK          0.005000   COST          0.000000   
    TURKEY    PRICE         0.000000   SCALE      2000.000000   
    PRODUCT   WT           -1.000000   COST          0.000000   
    PRODUCT   PRICE         0.000000   SCALE         1.000000   
*2345678